# Objective value = 1374
y 1374
x1 1739
r1 1
y1 0
x2 431
r2 1
y2 837
x3 978
r3 0
y3 631
x4 2177
r4 1
y4 855
x5 513
r5 0
y5 446
x6 0
r6 1
y6 0
x7 991
r7 1
y7 853
x8 2281
r8 0
y8 427
x9 0
r9 0
y9 837
x10 2052
r10 1
y10 427
x11 681
r11 0
y11 950
x12 2179
r12 1
y12 313
x13 459
r13 1
y13 949
x14 894
r14 1
y14 971
x15 1753
r15 1
y15 957
x16 1192
r16 0
y16 322
x17 325
r17 1
y17 0
x18 325
r18 0
y18 219
x19 1730
r19 1
y19 846
x20 1710
r20 1
y20 413
x21 0
r21 0
y21 517
x22 217
r22 0
y22 837
x23 1176
r23 0
y23 0
x24 2058
r24 1
y24 739
x25 1959
r25 0
y25 0
x26 651
r26 1
y26 0
x27 752
r27 1
y27 631
x28 254
r28 1
y28 1164
x29 1939
r29 0
y29 424
x30 1710
r30 1
y30 633
x31 2176
r31 1
y31 0
x32 735
r32 1
y32 218
x33 1217
r33 0
y33 847
p12 1
q12 0
p13 1
q13 0
p14 0
q14 1
p15 0
q15 1
p16 1
q16 0
p17 0
q17 1
p18 0
q18 0
p19 1
q19 0
p110 0
q110 1
p111 0
q111 1
p112 0
q112 0
p113 0
q113 1
p114 0
q114 1
p115 0
q115 1
p116 1
q116 0
p117 1
q117 0
p118 1
q118 0
p119 0
q119 1
p120 0
q120 1
p121 1
q121 0
p122 1
q122 0
p123 1
q123 0
p124 0
q124 1
p125 0
q125 0
p126 1
q126 0
p127 1
q127 0
p128 0
q128 1
p129 0
q129 1
p130 0
q130 1
p131 0
q131 0
p132 1
q132 0
p133 0
q133 1
p23 0
q23 0
p24 0
q24 0
p25 1
q25 1
p26 1
q26 0
p27 0
q27 0
p28 0
q28 0
p29 1
q29 0
p210 0
q210 0
p211 0
q211 1
p212 0
q212 0
p213 0
q213 1
p214 0
q214 0
p215 0
q215 0
p216 0
q216 0
p217 1
q217 1
p218 1
q218 1
p219 0
q219 0
p220 0
q220 0
p221 1
q221 1
p222 1
q222 0
p223 0
q223 0
p224 0
q224 0
p225 0
q225 0
p226 1
q226 1
p227 0
q227 0
p228 0
q228 1
p229 0
q229 0
p230 0
q230 0
p231 0
q231 0
p232 1
q232 1
p233 0
q233 0
p34 0
q34 0
p35 1
q35 0
p36 1
q36 0
p37 0
q37 1
p38 0
q38 0
p39 1
q39 0
p310 0
q310 0
p311 0
q311 1
p312 0
q312 0
p313 0
q313 1
p314 0
q314 1
p315 0
q315 0
p316 0
q316 0
p317 1
q317 1
p318 1
q318 0
p319 0
q319 0
p320 0
q320 0
p321 1
q321 0
p322 1
q322 0
p323 1
q323 1
p324 0
q324 0
p325 0
q325 0
p326 1
q326 1
p327 1
q327 0
p328 1
q328 0
p329 0
q329 0
p330 0
q330 0
p331 0
q331 0
p332 1
q332 1
p333 0
q333 0
p45 1
q45 0
p46 1
q46 0
p47 1
q47 0
p48 1
q48 1
p49 1
q49 0
p410 1
q410 1
p411 1
q411 0
p412 1
q412 1
p413 1
q413 0
p414 1
q414 0
p415 1
q415 0
p416 1
q416 0
p417 1
q417 0
p418 1
q418 0
p419 1
q419 0
p420 1
q420 0
p421 1
q421 0
p422 1
q422 0
p423 1
q423 0
p424 1
q424 1
p425 1
q425 1
p426 1
q426 0
p427 1
q427 0
p428 1
q428 0
p429 1
q429 0
p430 1
q430 0
p431 1
q431 1
p432 1
q432 0
p433 1
q433 0
p56 1
q56 0
p57 0
q57 0
p58 0
q58 0
p59 1
q59 0
p510 0
q510 0
p511 0
q511 1
p512 0
q512 0
p513 0
q513 1
p514 0
q514 1
p515 0
q515 0
p516 0
q516 0
p517 1
q517 1
p518 1
q518 1
p519 0
q519 0
p520 0
q520 0
p521 1
q521 0
p522 1
q522 0
p523 1
q523 1
p524 0
q524 0
p525 1
q525 1
p526 1
q526 1
p527 0
q527 0
p528 0
q528 1
p529 0
q529 0
p530 0
q530 0
p531 0
q531 0
p532 0
q532 0
p533 0
q533 0
p67 0
q67 0
p68 0
q68 0
p69 0
q69 1
p610 0
q610 0
p611 0
q611 0
p612 0
q612 0
p613 0
q613 1
p614 0
q614 0
p615 0
q615 0
p616 0
q616 0
p617 0
q617 0
p618 0
q618 0
p619 0
q619 0
p620 0
q620 0
p621 0
q621 1
p622 0
q622 1
p623 0
q623 0
p624 0
q624 0
p625 0
q625 0
p626 0
q626 0
p627 0
q627 0
p628 0
q628 1
p629 0
q629 0
p630 0
q630 0
p631 0
q631 0
p632 0
q632 0
p633 0
q633 0
p78 0
q78 0
p79 1
q79 0
p710 0
q710 0
p711 1
q711 0
p712 0
q712 0
p713 1
q713 0
p714 0
q714 1
p715 0
q715 0
p716 1
q716 1
p717 1
q717 1
p718 1
q718 0
p719 0
q719 0
p720 0
q720 0
p721 1
q721 0
p722 1
q722 0
p723 1
q723 1
p724 0
q724 0
p725 1
q725 1
p726 1
q726 1
p727 1
q727 0
p728 1
q728 0
p729 0
q729 0
p730 0
q730 0
p731 1
q731 1
p732 1
q732 1
p733 0
q733 0
p89 1
q89 0
p810 1
q810 0
p811 1
q811 0
p812 1
q812 1
p813 1
q813 0
p814 1
q814 0
p815 1
q815 0
p816 1
q816 0
p817 1
q817 0
p818 1
q818 0
p819 1
q819 0
p820 1
q820 0
p821 1
q821 0
p822 1
q822 0
p823 1
q823 0
p824 1
q824 0
p825 1
q825 0
p826 1
q826 0
p827 1
q827 0
p828 1
q828 0
p829 1
q829 0
p830 1
q830 0
p831 1
q831 1
p832 1
q832 0
p833 1
q833 0
p910 0
q910 0
p911 0
q911 0
p912 0
q912 0
p913 0
q913 0
p914 0
q914 0
p915 0
q915 0
p916 0
q916 0
p917 1
q917 1
p918 1
q918 1
p919 0
q919 0
p920 0
q920 0
p921 1
q921 1
p922 0
q922 0
p923 0
q923 0
p924 0
q924 0
p925 0
q925 0
p926 1
q926 1
p927 0
q927 0
p928 0
q928 0
p929 0
q929 0
p930 0
q930 0
p931 0
q931 0
p932 1
q932 1
p933 0
q933 0
p1011 1
q1011 0
p1012 1
q1012 1
p1013 1
q1013 0
p1014 0
q1014 1
p1015 0
q1015 1
p1016 1
q1016 0
p1017 1
q1017 0
p1018 1
q1018 0
p1019 0
q1019 1
p1020 1
q1020 0
p1021 1
q1021 0
p1022 1
q1022 0
p1023 1
q1023 0
p1024 0
q1024 1
p1025 1
q1025 1
p1026 1
q1026 1
p1027 1
q1027 0
p1028 0
q1028 1
p1029 1
q1029 0
p1030 1
q1030 0
p1031 1
q1031 1
p1032 1
q1032 0
p1033 1
q1033 0
p1112 0
q1112 0
p1113 1
q1113 0
p1114 0
q1114 0
p1115 0
q1115 0
p1116 1
q1116 1
p1117 1
q1117 1
p1118 1
q1118 1
p1119 0
q1119 0
p1120 0
q1120 0
p1121 1
q1121 1
p1122 1
q1122 0
p1123 0
q1123 0
p1124 0
q1124 0
p1125 0
q1125 0
p1126 1
q1126 1
p1127 1
q1127 1
p1128 1
q1128 0
p1129 0
q1129 0
p1130 0
q1130 0
p1131 0
q1131 0
p1132 1
q1132 1
p1133 0
q1133 0
p1213 1
q1213 0
p1214 1
q1214 0
p1215 1
q1215 0
p1216 1
q1216 0
p1217 1
q1217 0
p1218 1
q1218 0
p1219 1
q1219 0
p1220 1
q1220 0
p1221 1
q1221 0
p1222 1
q1222 0
p1223 1
q1223 0
p1224 0
q1224 1
p1225 1
q1225 0
p1226 1
q1226 0
p1227 1
q1227 0
p1228 1
q1228 0
p1229 1
q1229 0
p1230 1
q1230 0
p1231 1
q1231 1
p1232 1
q1232 0
p1233 1
q1233 0
p1314 0
q1314 0
p1315 0
q1315 0
p1316 0
q1316 0
p1317 1
q1317 1
p1318 1
q1318 1
p1319 0
q1319 0
p1320 0
q1320 0
p1321 1
q1321 1
p1322 1
q1322 0
p1323 0
q1323 0
p1324 0
q1324 0
p1325 0
q1325 0
p1326 1
q1326 1
p1327 0
q1327 0
p1328 0
q1328 1
p1329 0
q1329 0
p1330 0
q1330 0
p1331 0
q1331 0
p1332 0
q1332 0
p1333 0
q1333 0
p1415 0
q1415 0
p1416 1
q1416 1
p1417 1
q1417 1
p1418 1
q1418 1
p1419 0
q1419 0
p1420 0
q1420 0
p1421 1
q1421 0
p1422 1
q1422 0
p1423 1
q1423 1
p1424 0
q1424 0
p1425 0
q1425 0
p1426 1
q1426 1
p1427 1
q1427 1
p1428 1
q1428 0
p1429 0
q1429 0
p1430 0
q1430 0
p1431 0
q1431 0
p1432 1
q1432 1
p1433 0
q1433 0
p1516 1
q1516 1
p1517 1
q1517 0
p1518 1
q1518 0
p1519 1
q1519 1
p1520 1
q1520 1
p1521 1
q1521 0
p1522 1
q1522 0
p1523 1
q1523 0
p1524 1
q1524 1
p1525 1
q1525 1
p1526 1
q1526 0
p1527 1
q1527 0
p1528 1
q1528 0
p1529 1
q1529 1
p1530 1
q1530 1
p1531 1
q1531 1
p1532 1
q1532 0
p1533 1
q1533 0
p1617 1
q1617 1
p1618 1
q1618 0
p1619 0
q1619 0
p1620 0
q1620 0
p1621 1
q1621 0
p1622 1
q1622 0
p1623 1
q1623 1
p1624 0
q1624 0
p1625 0
q1625 0
p1626 1
q1626 1
p1627 1
q1627 0
p1628 1
q1628 0
p1629 0
q1629 0
p1630 0
q1630 0
p1631 0
q1631 0
p1632 1
q1632 0
p1633 0
q1633 1
p1718 0
q1718 1
p1719 0
q1719 0
p1720 0
q1720 0
p1721 0
q1721 1
p1722 0
q1722 1
p1723 0
q1723 0
p1724 0
q1724 1
p1725 0
q1725 0
p1726 0
q1726 0
p1727 0
q1727 1
p1728 0
q1728 1
p1729 0
q1729 0
p1730 0
q1730 0
p1731 0
q1731 0
p1732 0
q1732 0
p1733 0
q1733 1
p1819 0
q1819 0
p1820 0
q1820 0
p1821 0
q1821 1
p1822 0
q1822 1
p1823 0
q1823 0
p1824 0
q1824 1
p1825 0
q1825 0
p1826 1
q1826 1
p1827 0
q1827 1
p1828 0
q1828 1
p1829 0
q1829 0
p1830 0
q1830 0
p1831 0
q1831 0
p1832 0
q1832 0
p1833 0
q1833 1
p1920 1
q1920 1
p1921 1
q1921 0
p1922 1
q1922 0
p1923 1
q1923 1
p1924 0
q1924 0
p1925 1
q1925 1
p1926 1
q1926 1
p1927 1
q1927 0
p1928 1
q1928 0
p1929 1
q1929 1
p1930 1
q1930 1
p1931 1
q1931 1
p1932 1
q1932 0
p1933 1
q1933 0
p2021 1
q2021 0
p2022 1
q2022 0
p2023 1
q2023 1
p2024 0
q2024 0
p2025 0
q2025 0
p2026 1
q2026 0
p2027 1
q2027 0
p2028 0
q2028 1
p2029 0
q2029 0
p2030 0
q2030 1
p2031 1
q2031 1
p2032 1
q2032 0
p2033 0
q2033 1
p2122 0
q2122 1
p2123 0
q2123 0
p2124 0
q2124 0
p2125 0
q2125 0
p2126 1
q2126 1
p2127 0
q2127 0
p2128 0
q2128 1
p2129 0
q2129 0
p2130 0
q2130 0
p2131 0
q2131 0
p2132 0
q2132 0
p2133 0
q2133 0
p2223 0
q2223 0
p2224 0
q2224 0
p2225 0
q2225 0
p2226 1
q2226 1
p2227 0
q2227 0
p2228 0
q2228 1
p2229 0
q2229 0
p2230 0
q2230 0
p2231 0
q2231 0
p2232 0
q2232 0
p2233 0
q2233 0
p2324 0
q2324 0
p2325 0
q2325 0
p2326 1
q2326 0
p2327 0
q2327 1
p2328 0
q2328 1
p2329 0
q2329 0
p2330 0
q2330 1
p2331 0
q2331 0
p2332 1
q2332 0
p2333 0
q2333 1
p2425 1
q2425 1
p2426 1
q2426 0
p2427 1
q2427 0
p2428 1
q2428 0
p2429 1
q2429 0
p2430 1
q2430 0
p2431 1
q2431 1
p2432 1
q2432 0
p2433 1
q2433 0
p2526 1
q2526 0
p2527 1
q2527 0
p2528 0
q2528 1
p2529 0
q2529 1
p2530 1
q2530 0
p2531 0
q2531 0
p2532 1
q2532 0
p2533 1
q2533 0
p2627 0
q2627 1
p2628 0
q2628 1
p2629 0
q2629 0
p2630 0
q2630 0
p2631 0
q2631 0
p2632 0
q2632 1
p2633 0
q2633 1
p2728 1
q2728 0
p2729 0
q2729 0
p2730 0
q2730 0
p2731 0
q2731 0
p2732 1
q2732 1
p2733 0
q2733 0
p2829 0
q2829 0
p2830 1
q2830 1
p2831 1
q2831 1
p2832 1
q2832 1
p2833 0
q2833 0
p2930 1
q2930 0
p2931 0
q2931 0
p2932 1
q2932 0
p2933 0
q2933 1
p3031 1
q3031 1
p3032 1
q3032 0
p3033 0
q3033 1
p3132 1
q3132 0
p3133 0
q3133 1
p3233 0
q3233 0
